Maximize

5 y_0 + 10 y_1


Subject To

a0: x_0_0 + x_0_1 <= 6
a1: x_1_0 + x_1_1 <= 3
a2: x_2_0 + x_2_1 <= 8
c0: x_0_0 - 6 y_0 <= 0
c1: x_0_1 - 0 y_1 <= 0
c2: x_1_0 - 0 y_0 <= 0
c3: x_1_1 - 3 y_1 <= 0
c4: x_2_0 - 0 y_0 <= 0
c5: x_2_1 - 8 y_1 <= 0
z0: x$_0 = 1 -> y_0 = 1
z1: x$_1 = 1 -> x_0_0 + x_1_0 + x_2_0 >= 1
z2: x$_0 - x$_1  <=  0
z3: x$_2 = 1 -> y_1 = 1
z4: x$_3 = 1 -> x_0_1 + x_1_1 + x_2_1 >= 1
z5: x$_2 - x$_3  <=  0


Bounds


0 <= x_2_1 <= 8
2
2



Binary

x$_0 x$_1 x$_2 x$_3

 


End
